(set-logic QF_S)
(declare-fun var_0xINPUT_172506 () String)
(assert (and (= (len var_0xINPUT_172506) 0) (= (len var_0xINPUT_172506) 0) (not (= var_0xINPUT_172506 "Example:")) (= (len var_0xINPUT_172506) 0) (not (= var_0xINPUT_172506 "A9jaaDKZbG"))))
(check-sat var_0xINPUT_172506)